p cnf 250 375
1 204 0
1 189 0
1 126 0
2 5 0
2 174 0
2 153 0
3 206 0
3 165 0
3 73 0
4 220 0
4 180 0
4 82 0
5 87 0
5 89 0
6 98 0
6 50 0
6 234 0
7 18 0
7 51 0
7 168 0
8 193 0
8 15 0
8 203 0
9 135 0
9 200 0
9 68 0
10 142 0
10 151 0
10 94 0
11 250 0
11 150 0
11 49 0
12 16 0
12 249 0
12 84 0
13 147 0
13 67 0
13 184 0
14 222 0
14 86 0
14 33 0
15 163 0
15 166 0
16 209 0
16 44 0
17 84 0
17 107 0
17 156 0
18 184 0
18 142 0
19 22 0
19 149 0
19 163 0
20 158 0
20 145 0
20 124 0
21 125 0
21 52 0
21 233 0
22 54 0
22 176 0
23 45 0
23 127 0
23 109 0
24 190 0
24 186 0
24 58 0
25 32 0
25 89 0
25 190 0
26 59 0
26 90 0
26 129 0
27 134 0
27 232 0
27 90 0
28 34 0
28 248 0
28 159 0
29 166 0
29 193 0
29 235 0
30 118 0
30 202 0
30 135 0
31 104 0
31 234 0
31 66 0
32 237 0
32 131 0
33 96 0
33 72 0
34 140 0
34 80 0
35 189 0
35 58 0
35 159 0
36 197 0
36 212 0
36 217 0
37 228 0
37 229 0
37 93 0
38 41 0
38 67 0
38 145 0
39 245 0
39 184 0
39 161 0
40 71 0
40 179 0
40 59 0
41 44 0
41 119 0
42 92 0
42 160 0
42 129 0
43 228 0
43 190 0
43 221 0
44 151 0
45 166 0
45 126 0
46 112 0
46 208 0
46 65 0
47 247 0
47 83 0
47 224 0
48 124 0
48 69 0
48 70 0
49 242 0
49 112 0
50 240 0
50 56 0
51 128 0
51 55 0
52 131 0
52 188 0
53 170 0
53 115 0
53 233 0
54 191 0
54 202 0
55 204 0
55 74 0
56 119 0
56 91 0
57 99 0
57 108 0
57 154 0
58 207 0
59 74 0
60 122 0
60 240 0
60 140 0
61 117 0
61 162 0
61 157 0
62 78 0
62 199 0
62 198 0
63 152 0
63 148 0
63 213 0
64 220 0
64 246 0
64 113 0
65 132 0
65 105 0
66 75 0
66 180 0
67 139 0
68 156 0
68 119 0
69 171 0
69 232 0
70 155 0
70 123 0
71 183 0
71 242 0
72 84 0
72 128 0
73 130 0
73 198 0
74 152 0
75 205 0
75 208 0
76 82 0
76 231 0
76 100 0
77 147 0
77 98 0
77 120 0
78 114 0
78 214 0
79 222 0
79 120 0
79 191 0
80 172 0
80 206 0
81 101 0
81 97 0
81 175 0
82 180 0
83 191 0
83 200 0
85 113 0
85 121 0
85 178 0
86 88 0
86 165 0
87 108 0
87 147 0
88 247 0
88 215 0
89 115 0
90 95 0
91 146 0
91 156 0
92 250 0
92 196 0
93 109 0
93 176 0
94 138 0
94 178 0
95 217 0
95 162 0
96 237 0
96 241 0
97 237 0
97 181 0
98 225 0
99 193 0
99 236 0
100 213 0
100 182 0
101 104 0
101 209 0
102 245 0
102 110 0
102 103 0
103 110 0
103 222 0
104 141 0
105 227 0
105 145 0
106 233 0
106 227 0
106 179 0
107 217 0
107 158 0
108 171 0
109 218 0
110 243 0
111 179 0
111 169 0
111 130 0
112 225 0
113 136 0
114 242 0
114 239 0
115 236 0
116 134 0
116 188 0
116 135 0
117 236 0
117 197 0
118 206 0
118 235 0
120 122 0
121 226 0
121 194 0
122 221 0
123 158 0
123 157 0
124 186 0
125 136 0
125 131 0
126 130 0
127 228 0
127 132 0
128 244 0
129 196 0
132 249 0
133 230 0
133 134 0
133 176 0
136 174 0
137 210 0
137 170 0
137 171 0
138 215 0
138 247 0
139 226 0
139 164 0
140 182 0
141 230 0
141 232 0
142 238 0
143 144 0
143 169 0
143 214 0
144 211 0
144 208 0
146 168 0
146 199 0
148 195 0
148 198 0
149 187 0
149 210 0
150 167 0
150 174 0
151 211 0
152 226 0
153 172 0
153 249 0
154 223 0
154 185 0
155 241 0
155 211 0
157 160 0
159 215 0
160 194 0
161 203 0
161 175 0
162 189 0
163 227 0
164 245 0
164 167 0
165 178 0
167 248 0
168 250 0
169 235 0
170 185 0
172 196 0
173 246 0
173 212 0
173 210 0
175 218 0
177 223 0
177 216 0
177 219 0
181 182 0
181 240 0
183 201 0
183 192 0
185 216 0
186 197 0
187 244 0
187 195 0
188 238 0
192 234 0
192 216 0
194 230 0
195 203 0
199 246 0
200 229 0
201 248 0
201 231 0
202 239 0
204 214 0
205 241 0
205 243 0
207 212 0
207 221 0
209 223 0
213 231 0
218 229 0
219 239 0
219 244 0
220 224 0
224 225 0
238 243 0
g -152